784 1512
1 2 2
1 29 3
2 3 4
2 30 4
3 4 1
3 31 3
4 5 5
4 32 4
5 6 2
5 33 1
6 7 5
6 34 2
7 8 2
7 35 3
8 9 1
8 36 2
9 10 2
9 37 2
10 11 4
10 38 3
11 12 1
11 39 5
12 13 1
12 40 2
13 14 3
13 41 2
14 15 5
14 42 1
15 16 3
15 43 1
16 17 4
16 44 5
17 18 2
17 45 1
18 19 5
18 46 1
19 20 3
19 47 4
20 21 4
20 48 2
21 22 5
21 49 1
22 23 1
22 50 5
23 24 2
23 51 1
24 25 2
24 52 5
25 26 3
25 53 2
26 27 1
26 54 4
27 28 5
27 55 2
28 56 1
29 30 3
29 57 4
30 31 1
30 58 4
31 32 1
31 59 3
32 33 3
32 60 1
33 34 4
33 61 2
34 35 2
34 62 5
35 36 2
35 63 4
36 37 1
36 64 3
37 38 5
37 65 2
38 39 3
38 66 4
39 40 1
39 67 3
40 41 3
40 68 2
41 42 5
41 69 1
42 43 3
42 70 5
43 44 4
43 71 1
44 45 4
44 72 4
45 46 2
45 73 1
46 47 2
46 74 2
47 48 5
47 75 3
48 49 1
48 76 5
49 50 4
49 77 4
50 51 3
50 78 5
51 52 5
51 79 3
52 53 3
52 80 1
53 54 3
53 81 2
54 55 3
54 82 5
55 56 2
55 83 5
56 84 5
57 58 4
57 85 4
58 59 4
58 86 2
59 60 5
59 87 5
60 61 1
60 88 3
61 62 3
61 89 4
62 63 1
62 90 2
63 64 1
63 91 4
64 65 3
64 92 2
65 66 4
65 93 4
66 67 4
66 94 3
67 68 1
67 95 4
68 69 1
68 96 1
69 70 3
69 97 2
70 71 3
70 98 2
71 72 2
71 99 1
72 73 2
72 100 5
73 74 3
73 101 4
74 75 2
74 102 5
75 76 2
75 103 4
76 77 3
76 104 4
77 78 1
77 105 2
78 79 4
78 106 4
79 80 1
79 107 2
80 81 4
80 108 2
81 82 4
81 109 1
82 83 4
82 110 2
83 84 3
83 111 1
84 112 1
85 86 1
85 113 2
86 87 1
86 114 2
87 88 4
87 115 3
88 89 4
88 116 4
89 90 3
89 117 3
90 91 2
90 118 5
91 92 4
91 119 5
92 93 1
92 120 1
93 94 3
93 121 5
94 95 5
94 122 3
95 96 4
95 123 4
96 97 4
96 124 3
97 98 3
97 125 4
98 99 2
98 126 3
99 100 4
99 127 2
100 101 1
100 128 3
101 102 3
101 129 4
102 103 1
102 130 2
103 104 2
103 131 1
104 105 3
104 132 2
105 106 5
105 133 3
106 107 1
106 134 2
107 108 1
107 135 4
108 109 5
108 136 5
109 110 3
109 137 5
110 111 4
110 138 3
111 112 2
111 139 1
112 140 1
113 114 3
113 141 3
114 115 3
114 142 1
115 116 4
115 143 2
116 117 1
116 144 5
117 118 4
117 145 5
118 119 5
118 146 1
119 120 5
119 147 5
120 121 3
120 148 2
121 122 4
121 149 2
122 123 5
122 150 1
123 124 3
123 151 4
124 125 3
124 152 2
125 126 3
125 153 3
126 127 1
126 154 5
127 128 4
127 155 3
128 129 5
128 156 2
129 130 5
129 157 2
130 131 5
130 158 3
131 132 3
131 159 1
132 133 1
132 160 1
133 134 2
133 161 4
134 135 3
134 162 5
135 136 1
135 163 3
136 137 3
136 164 3
137 138 3
137 165 2
138 139 3
138 166 4
139 140 3
139 167 2
140 168 1
141 142 4
141 169 5
142 143 2
142 170 3
143 144 3
143 171 1
144 145 1
144 172 3
145 146 1
145 173 2
146 147 1
146 174 3
147 148 1
147 175 4
148 149 5
148 176 4
149 150 4
149 177 4
150 151 5
150 178 3
151 152 1
151 179 4
152 153 1
152 180 2
153 154 1
153 181 4
154 155 4
154 182 1
155 156 4
155 183 1
156 157 2
156 184 3
157 158 4
157 185 1
158 159 3
158 186 4
159 160 5
159 187 5
160 161 3
160 188 1
161 162 2
161 189 4
162 163 4
162 190 2
163 164 2
163 191 1
164 165 4
164 192 2
165 166 4
165 193 1
166 167 2
166 194 3
167 168 3
167 195 2
168 196 2
169 170 1
169 197 1
170 171 5
170 198 3
171 172 2
171 199 2
172 173 5
172 200 4
173 174 5
173 201 4
174 175 5
174 202 5
175 176 2
175 203 3
176 177 2
176 204 3
177 178 4
177 205 5
178 179 2
178 206 1
179 180 4
179 207 3
180 181 5
180 208 4
181 182 5
181 209 3
182 183 5
182 210 3
183 184 2
183 211 2
184 185 5
184 212 2
185 186 2
185 213 1
186 187 3
186 214 2
187 188 4
187 215 1
188 189 4
188 216 5
189 190 4
189 217 2
190 191 3
190 218 1
191 192 1
191 219 3
192 193 3
192 220 5
193 194 1
193 221 5
194 195 1
194 222 5
195 196 2
195 223 3
196 224 5
197 198 5
197 225 5
198 199 5
198 226 5
199 200 2
199 227 4
200 201 4
200 228 4
201 202 1
201 229 5
202 203 5
202 230 1
203 204 1
203 231 5
204 205 5
204 232 4
205 206 4
205 233 3
206 207 3
206 234 5
207 208 5
207 235 5
208 209 2
208 236 5
209 210 1
209 237 4
210 211 2
210 238 4
211 212 1
211 239 2
212 213 4
212 240 1
213 214 5
213 241 3
214 215 5
214 242 2
215 216 5
215 243 2
216 217 4
216 244 5
217 218 1
217 245 1
218 219 5
218 246 2
219 220 1
219 247 4
220 221 5
220 248 1
221 222 2
221 249 1
222 223 1
222 250 5
223 224 3
223 251 3
224 252 1
225 226 3
225 253 4
226 227 4
226 254 4
227 228 5
227 255 4
228 229 1
228 256 2
229 230 3
229 257 4
230 231 1
230 258 5
231 232 1
231 259 1
232 233 2
232 260 5
233 234 3
233 261 3
234 235 1
234 262 5
235 236 2
235 263 4
236 237 4
236 264 3
237 238 5
237 265 2
238 239 2
238 266 3
239 240 5
239 267 5
240 241 3
240 268 5
241 242 4
241 269 3
242 243 4
242 270 5
243 244 3
243 271 5
244 245 1
244 272 3
245 246 2
245 273 3
246 247 3
246 274 4
247 248 3
247 275 5
248 249 5
248 276 5
249 250 5
249 277 3
250 251 5
250 278 4
251 252 5
251 279 5
252 280 1
253 254 5
253 281 2
254 255 2
254 282 2
255 256 5
255 283 3
256 257 4
256 284 1
257 258 4
257 285 3
258 259 5
258 286 1
259 260 1
259 287 5
260 261 1
260 288 5
261 262 5
261 289 1
262 263 3
262 290 3
263 264 5
263 291 3
264 265 4
264 292 1
265 266 2
265 293 4
266 267 5
266 294 3
267 268 3
267 295 4
268 269 4
268 296 4
269 270 3
269 297 5
270 271 2
270 298 2
271 272 4
271 299 2
272 273 5
272 300 2
273 274 5
273 301 5
274 275 3
274 302 1
275 276 5
275 303 5
276 277 5
276 304 4
277 278 3
277 305 1
278 279 3
278 306 1
279 280 2
279 307 1
280 308 1
281 282 5
281 309 1
282 283 4
282 310 5
283 284 2
283 311 3
284 285 5
284 312 3
285 286 5
285 313 5
286 287 3
286 314 5
287 288 1
287 315 4
288 289 1
288 316 3
289 290 4
289 317 3
290 291 4
290 318 2
291 292 5
291 319 1
292 293 2
292 320 3
293 294 3
293 321 3
294 295 2
294 322 2
295 296 2
295 323 4
296 297 3
296 324 3
297 298 4
297 325 2
298 299 1
298 326 3
299 300 5
299 327 1
300 301 4
300 328 2
301 302 1
301 329 4
302 303 2
302 330 2
303 304 3
303 331 5
304 305 4
304 332 5
305 306 3
305 333 1
306 307 5
306 334 3
307 308 5
307 335 5
308 336 2
309 310 4
309 337 5
310 311 1
310 338 2
311 312 1
311 339 4
312 313 1
312 340 3
313 314 1
313 341 1
314 315 1
314 342 5
315 316 1
315 343 5
316 317 1
316 344 3
317 318 1
317 345 3
318 319 2
318 346 3
319 320 4
319 347 2
320 321 3
320 348 4
321 322 5
321 349 3
322 323 1
322 350 1
323 324 4
323 351 2
324 325 4
324 352 5
325 326 5
325 353 1
326 327 2
326 354 5
327 328 3
327 355 1
328 329 2
328 356 4
329 330 1
329 357 3
330 331 3
330 358 5
331 332 3
331 359 4
332 333 4
332 360 4
333 334 1
333 361 3
334 335 5
334 362 3
335 336 1
335 363 3
336 364 3
337 338 1
337 365 2
338 339 1
338 366 5
339 340 5
339 367 4
340 341 3
340 368 3
341 342 1
341 369 4
342 343 4
342 370 2
343 344 1
343 371 5
344 345 5
344 372 3
345 346 1
345 373 4
346 347 3
346 374 2
347 348 3
347 375 5
348 349 5
348 376 3
349 350 2
349 377 3
350 351 5
350 378 5
351 352 2
351 379 4
352 353 3
352 380 2
353 354 4
353 381 4
354 355 5
354 382 4
355 356 5
355 383 2
356 357 3
356 384 2
357 358 5
357 385 4
358 359 3
358 386 1
359 360 2
359 387 4
360 361 5
360 388 1
361 362 3
361 389 2
362 363 1
362 390 4
363 364 5
363 391 4
364 392 1
365 366 3
365 393 2
366 367 3
366 394 4
367 368 3
367 395 5
368 369 3
368 396 5
369 370 3
369 397 1
370 371 4
370 398 3
371 372 5
371 399 5
372 373 3
372 400 3
373 374 2
373 401 1
374 375 1
374 402 5
375 376 1
375 403 2
376 377 4
376 404 2
377 378 4
377 405 3
378 379 4
378 406 2
379 380 4
379 407 3
380 381 2
380 408 1
381 382 5
381 409 4
382 383 5
382 410 4
383 384 3
383 411 4
384 385 3
384 412 1
385 386 5
385 413 2
386 387 4
386 414 5
387 388 2
387 415 4
388 389 3
388 416 4
389 390 3
389 417 3
390 391 4
390 418 5
391 392 2
391 419 2
392 420 4
393 394 1
393 421 2
394 395 4
394 422 3
395 396 5
395 423 4
396 397 4
396 424 4
397 398 4
397 425 4
398 399 2
398 426 2
399 400 4
399 427 4
400 401 5
400 428 3
401 402 1
401 429 5
402 403 2
402 430 3
403 404 1
403 431 2
404 405 4
404 432 3
405 406 2
405 433 5
406 407 3
406 434 5
407 408 1
407 435 2
408 409 2
408 436 4
409 410 3
409 437 1
410 411 1
410 438 2
411 412 2
411 439 4
412 413 3
412 440 4
413 414 1
413 441 4
414 415 3
414 442 3
415 416 4
415 443 1
416 417 3
416 444 1
417 418 3
417 445 5
418 419 3
418 446 3
419 420 1
419 447 5
420 448 2
421 422 5
421 449 2
422 423 5
422 450 2
423 424 5
423 451 4
424 425 3
424 452 1
425 426 5
425 453 3
426 427 2
426 454 5
427 428 5
427 455 3
428 429 3
428 456 3
429 430 5
429 457 2
430 431 5
430 458 3
431 432 5
431 459 1
432 433 1
432 460 5
433 434 3
433 461 5
434 435 1
434 462 1
435 436 1
435 463 3
436 437 5
436 464 2
437 438 1
437 465 2
438 439 1
438 466 2
439 440 1
439 467 2
440 441 1
440 468 1
441 442 5
441 469 1
442 443 3
442 470 3
443 444 3
443 471 5
444 445 4
444 472 5
445 446 5
445 473 2
446 447 4
446 474 5
447 448 1
447 475 3
448 476 1
449 450 1
449 477 4
450 451 3
450 478 4
451 452 2
451 479 1
452 453 5
452 480 3
453 454 4
453 481 2
454 455 2
454 482 5
455 456 2
455 483 3
456 457 2
456 484 2
457 458 4
457 485 2
458 459 5
458 486 1
459 460 3
459 487 2
460 461 2
460 488 4
461 462 1
461 489 5
462 463 5
462 490 1
463 464 3
463 491 3
464 465 3
464 492 4
465 466 4
465 493 5
466 467 2
466 494 1
467 468 2
467 495 3
468 469 2
468 496 2
469 470 5
469 497 1
470 471 4
470 498 2
471 472 1
471 499 1
472 473 3
472 500 4
473 474 4
473 501 2
474 475 4
474 502 4
475 476 5
475 503 3
476 504 4
477 478 5
477 505 3
478 479 5
478 506 5
479 480 2
479 507 2
480 481 1
480 508 3
481 482 4
481 509 2
482 483 2
482 510 4
483 484 4
483 511 4
484 485 3
484 512 4
485 486 5
485 513 2
486 487 2
486 514 2
487 488 4
487 515 5
488 489 4
488 516 5
489 490 1
489 517 1
490 491 1
490 518 1
491 492 2
491 519 3
492 493 1
492 520 1
493 494 3
493 521 2
494 495 3
494 522 5
495 496 2
495 523 4
496 497 5
496 524 1
497 498 4
497 525 2
498 499 5
498 526 5
499 500 5
499 527 2
500 501 3
500 528 1
501 502 2
501 529 2
502 503 5
502 530 1
503 504 5
503 531 4
504 532 4
505 506 4
505 533 3
506 507 3
506 534 5
507 508 4
507 535 3
508 509 1
508 536 5
509 510 1
509 537 3
510 511 2
510 538 4
511 512 4
511 539 4
512 513 3
512 540 4
513 514 5
513 541 4
514 515 4
514 542 2
515 516 1
515 543 2
516 517 4
516 544 1
517 518 3
517 545 1
518 519 1
518 546 4
519 520 4
519 547 2
520 521 2
520 548 2
521 522 4
521 549 2
522 523 3
522 550 1
523 524 4
523 551 2
524 525 1
524 552 5
525 526 1
525 553 4
526 527 3
526 554 2
527 528 4
527 555 3
528 529 2
528 556 1
529 530 3
529 557 3
530 531 1
530 558 3
531 532 4
531 559 1
532 560 2
533 534 3
533 561 3
534 535 5
534 562 2
535 536 2
535 563 4
536 537 2
536 564 1
537 538 4
537 565 2
538 539 4
538 566 5
539 540 4
539 567 5
540 541 3
540 568 1
541 542 2
541 569 3
542 543 5
542 570 4
543 544 4
543 571 5
544 545 4
544 572 3
545 546 1
545 573 5
546 547 3
546 574 2
547 548 5
547 575 5
548 549 3
548 576 5
549 550 1
549 577 1
550 551 1
550 578 3
551 552 4
551 579 3
552 553 3
552 580 5
553 554 1
553 581 1
554 555 3
554 582 1
555 556 2
555 583 2
556 557 1
556 584 5
557 558 2
557 585 5
558 559 1
558 586 1
559 560 2
559 587 3
560 588 3
561 562 5
561 589 5
562 563 4
562 590 3
563 564 5
563 591 4
564 565 2
564 592 3
565 566 2
565 593 5
566 567 1
566 594 2
567 568 2
567 595 1
568 569 4
568 596 5
569 570 3
569 597 4
570 571 4
570 598 4
571 572 2
571 599 3
572 573 5
572 600 2
573 574 4
573 601 4
574 575 2
574 602 5
575 576 5
575 603 4
576 577 2
576 604 5
577 578 2
577 605 1
578 579 2
578 606 3
579 580 4
579 607 2
580 581 4
580 608 3
581 582 2
581 609 1
582 583 4
582 610 3
583 584 1
583 611 5
584 585 5
584 612 4
585 586 3
585 613 2
586 587 5
586 614 2
587 588 2
587 615 3
588 616 5
589 590 5
589 617 1
590 591 1
590 618 2
591 592 5
591 619 4
592 593 5
592 620 4
593 594 2
593 621 5
594 595 4
594 622 3
595 596 1
595 623 4
596 597 5
596 624 1
597 598 3
597 625 3
598 599 5
598 626 3
599 600 2
599 627 2
600 601 1
600 628 1
601 602 1
601 629 5
602 603 3
602 630 5
603 604 4
603 631 4
604 605 4
604 632 4
605 606 5
605 633 2
606 607 5
606 634 1
607 608 2
607 635 4
608 609 4
608 636 5
609 610 2
609 637 5
610 611 3
610 638 5
611 612 2
611 639 5
612 613 2
612 640 1
613 614 1
613 641 1
614 615 4
614 642 5
615 616 3
615 643 1
616 644 4
617 618 3
617 645 3
618 619 1
618 646 4
619 620 3
619 647 4
620 621 2
620 648 3
621 622 2
621 649 4
622 623 5
622 650 1
623 624 5
623 651 3
624 625 2
624 652 2
625 626 3
625 653 2
626 627 1
626 654 3
627 628 1
627 655 5
628 629 1
628 656 1
629 630 3
629 657 5
630 631 1
630 658 5
631 632 2
631 659 2
632 633 1
632 660 2
633 634 1
633 661 1
634 635 2
634 662 4
635 636 3
635 663 3
636 637 4
636 664 4
637 638 1
637 665 3
638 639 5
638 666 4
639 640 3
639 667 5
640 641 3
640 668 4
641 642 2
641 669 2
642 643 4
642 670 5
643 644 3
643 671 3
644 672 1
645 646 1
645 673 4
646 647 3
646 674 2
647 648 1
647 675 3
648 649 1
648 676 3
649 650 1
649 677 5
650 651 2
650 678 4
651 652 3
651 679 5
652 653 2
652 680 5
653 654 2
653 681 5
654 655 4
654 682 2
655 656 2
655 683 4
656 657 4
656 684 3
657 658 3
657 685 3
658 659 1
658 686 3
659 660 3
659 687 1
660 661 3
660 688 2
661 662 1
661 689 5
662 663 1
662 690 4
663 664 5
663 691 5
664 665 3
664 692 3
665 666 3
665 693 3
666 667 2
666 694 2
667 668 1
667 695 3
668 669 5
668 696 4
669 670 4
669 697 3
670 671 3
670 698 2
671 672 1
671 699 3
672 700 5
673 674 3
673 701 4
674 675 2
674 702 5
675 676 3
675 703 4
676 677 4
676 704 1
677 678 3
677 705 1
678 679 2
678 706 2
679 680 5
679 707 5
680 681 5
680 708 1
681 682 3
681 709 1
682 683 4
682 710 5
683 684 2
683 711 1
684 685 3
684 712 3
685 686 1
685 713 1
686 687 4
686 714 4
687 688 2
687 715 5
688 689 3
688 716 2
689 690 1
689 717 3
690 691 2
690 718 5
691 692 5
691 719 5
692 693 3
692 720 3
693 694 4
693 721 4
694 695 4
694 722 1
695 696 2
695 723 4
696 697 1
696 724 1
697 698 2
697 725 2
698 699 4
698 726 3
699 700 4
699 727 2
700 728 2
701 702 3
701 729 5
702 703 2
702 730 1
703 704 3
703 731 1
704 705 1
704 732 4
705 706 1
705 733 1
706 707 5
706 734 5
707 708 3
707 735 4
708 709 1
708 736 2
709 710 4
709 737 5
710 711 1
710 738 5
711 712 1
711 739 5
712 713 3
712 740 4
713 714 4
713 741 4
714 715 1
714 742 5
715 716 1
715 743 2
716 717 4
716 744 3
717 718 5
717 745 3
718 719 3
718 746 3
719 720 4
719 747 5
720 721 4
720 748 5
721 722 2
721 749 3
722 723 3
722 750 5
723 724 4
723 751 1
724 725 2
724 752 3
725 726 2
725 753 3
726 727 5
726 754 5
727 728 5
727 755 1
728 756 2
729 730 1
729 757 4
730 731 1
730 758 2
731 732 3
731 759 3
732 733 4
732 760 3
733 734 3
733 761 5
734 735 5
734 762 4
735 736 5
735 763 3
736 737 2
736 764 4
737 738 2
737 765 2
738 739 4
738 766 5
739 740 5
739 767 5
740 741 1
740 768 2
741 742 4
741 769 1
742 743 4
742 770 3
743 744 5
743 771 4
744 745 4
744 772 2
745 746 2
745 773 2
746 747 5
746 774 3
747 748 1
747 775 5
748 749 2
748 776 4
749 750 3
749 777 3
750 751 4
750 778 5
751 752 5
751 779 1
752 753 2
752 780 1
753 754 5
753 781 4
754 755 3
754 782 3
755 756 3
755 783 2
756 784 5
757 758 5
758 759 4
759 760 5
760 761 5
761 762 3
762 763 5
763 764 4
764 765 5
765 766 3
766 767 2
767 768 5
768 769 4
769 770 1
770 771 2
771 772 1
772 773 4
773 774 5
774 775 2
775 776 4
776 777 2
777 778 2
778 779 1
779 780 2
780 781 4
781 782 2
782 783 2
783 784 4
